60
1 0 8
2 1 10
4 0 3
4 1 8
4 2 10
5 1 3
5 4 10
6 0 10
6 5 7
7 3 9
7 4 9
7 5 5
7 6 9
8 0 3
8 3 10
8 7 3
9 0 5
9 1 7
9 4 2
9 5 3
10 1 5
10 3 8
10 5 10
10 8 4
11 0 7
11 1 8
11 2 6
11 5 8
11 7 3
12 1 9
12 5 1
12 8 5
12 9 2
12 10 1
12 11 7
13 3 2
13 4 8
13 10 7
13 12 2
14 1 9
14 2 5
14 5 1
14 6 10
14 7 9
14 8 4
14 10 5
14 11 7
14 13 10
15 1 3
15 3 6
15 4 8
15 5 5
15 8 7
15 11 2
15 12 1
15 14 3
16 0 4
16 1 8
16 2 9
16 4 4
16 5 1
16 6 9
16 7 7
16 10 3
16 12 8
17 0 1
17 2 1
17 3 9
17 5 6
17 7 10
17 9 5
17 11 7
17 12 4
17 15 10
18 2 9
18 4 10
18 5 2
18 6 6
18 7 1
18 12 1
18 14 10
19 0 3
19 1 10
19 2 3
19 5 4
19 7 9
19 8 8
19 9 3
19 10 7
19 12 3
19 13 4
19 18 2
20 0 3
20 4 10
20 6 9
20 7 1
20 8 8
20 9 5
20 10 10
20 11 6
20 12 1
20 14 1
20 19 4
21 1 8
21 3 7
21 4 2
21 5 10
21 7 4
21 8 7
21 9 1
21 10 3
21 13 5
21 14 10
21 15 3
21 16 1
22 1 4
22 5 10
22 6 10
22 8 1
22 9 9
22 10 6
22 11 4
22 13 6
22 16 1
22 17 8
22 20 6
23 7 2
23 9 6
23 11 8
23 13 10
23 14 7
23 15 3
23 16 7
23 17 4
23 22 3
24 0 1
24 1 10
24 6 10
24 7 6
24 8 5
24 10 7
24 13 1
24 15 2
24 16 4
24 18 7
25 3 5
25 5 7
25 6 1
25 8 8
25 9 1
25 10 7
25 11 7
25 13 10
25 17 8
25 18 10
25 19 6
25 20 10
25 21 3
25 22 1
25 24 10
26 2 7
26 3 4
26 7 9
26 8 9
26 9 4
26 10 4
26 11 2
26 14 6
26 15 1
26 16 5
26 17 10
26 18 2
26 20 8
26 22 2
26 23 3
26 24 6
27 0 1
27 5 7
27 6 8
27 8 10
27 11 3
27 15 4
27 18 2
27 21 10
27 23 1
27 24 10
28 3 9
28 4 6
28 5 4
28 6 9
28 8 2
28 11 3
28 12 2
28 15 10
28 21 5
28 25 8
28 26 10
29 1 6
29 3 7
29 4 5
29 6 3
29 7 4
29 9 3
29 10 8
29 12 5
29 14 2
29 17 6
29 20 9
29 21 10
29 22 3
29 28 5
30 0 1
30 1 3
30 2 7
30 3 1
30 4 6
30 7 2
30 9 6
30 10 10
30 11 7
30 14 2
30 20 3
30 22 2
30 23 7
30 25 8
30 27 2
30 28 7
30 29 1
31 1 6
31 3 1
31 4 7
31 5 4
31 6 1
31 8 7
31 11 7
31 16 10
31 18 6
31 19 7
31 23 1
31 25 7
31 27 7
31 28 6
31 29 6
32 0 10
32 2 6
32 6 5
32 7 10
32 9 9
32 10 3
32 16 2
32 17 5
32 19 5
32 20 9
32 21 8
32 23 3
32 24 9
32 26 3
33 2 10
33 6 3
33 7 5
33 8 3
33 10 7
33 11 10
33 13 4
33 14 6
33 15 10
33 16 8
33 17 10
33 19 1
33 20 3
33 22 3
33 24 9
33 25 6
33 27 3
33 28 2
33 29 2
34 1 9
34 9 3
34 11 9
34 12 3
34 15 5
34 16 7
34 18 7
34 19 7
34 21 10
34 22 8
34 24 9
34 27 2
34 29 10
34 30 9
34 31 9
35 0 2
35 1 7
35 2 5
35 3 8
35 5 9
35 7 3
35 8 4
35 10 3
35 12 5
35 13 10
35 14 9
35 16 10
35 17 4
35 19 4
35 21 3
35 24 5
35 27 7
35 28 4
35 29 10
35 33 2
35 34 1
36 1 4
36 2 7
36 4 8
36 5 4
36 7 7
36 8 3
36 9 10
36 10 7
36 11 8
36 12 2
36 13 5
36 14 8
36 15 8
36 20 5
36 24 9
36 27 6
36 28 6
36 30 7
36 32 3
37 1 10
37 3 2
37 9 3
37 11 4
37 12 5
37 13 7
37 15 8
37 18 4
37 19 4
37 20 10
37 21 7
37 22 9
37 23 1
37 24 9
37 26 1
37 27 3
37 36 6
38 1 6
38 2 9
38 3 5
38 4 10
38 5 1
38 7 6
38 9 5
38 12 6
38 13 10
38 15 3
38 16 7
38 18 6
38 22 9
38 23 8
38 26 8
38 27 6
38 30 5
38 31 7
38 33 4
38 34 10
38 36 1
39 1 3
39 3 8
39 4 9
39 7 10
39 11 5
39 13 7
39 14 5
39 15 3
39 18 2
39 20 4
39 24 2
39 28 3
39 29 2
39 30 8
39 32 8
39 36 5
39 37 2
40 1 10
40 2 2
40 4 2
40 7 4
40 10 4
40 11 10
40 13 7
40 17 3
40 18 7
40 20 3
40 23 1
40 24 9
40 25 9
40 27 3
40 28 9
40 29 2
40 31 3
40 32 3
40 33 6
40 34 2
40 35 9
40 37 6
40 38 4
40 39 1
41 1 9
41 2 6
41 4 4
41 8 1
41 10 4
41 11 6
41 12 8
41 14 5
41 15 6
41 16 5
41 17 10
41 18 1
41 19 6
41 22 10
41 23 1
41 26 7
41 27 10
41 28 10
41 30 8
41 31 4
41 32 10
41 39 9
41 40 8
42 0 3
42 1 3
42 2 3
42 3 3
42 4 5
42 7 7
42 9 7
42 11 5
42 12 2
42 13 7
42 14 6
42 16 1
42 17 9
42 19 3
42 20 3
42 22 5
42 23 8
42 30 9
42 35 8
42 36 3
42 40 10
42 41 1
43 1 9
43 2 4
43 5 6
43 7 1
43 10 7
43 11 6
43 13 10
43 15 10
43 16 1
43 17 6
43 18 5
43 25 4
43 30 2
43 33 10
43 34 3
43 38 6
44 0 9
44 2 5
44 3 6
44 6 5
44 7 2
44 8 10
44 9 9
44 11 10
44 12 2
44 14 8
44 15 4
44 18 2
44 19 8
44 20 3
44 21 3
44 24 7
44 26 2
44 27 4
44 28 4
44 30 2
44 35 2
44 37 6
44 38 1
44 39 4
44 41 7
44 42 6
44 43 4
45 2 1
45 4 6
45 5 6
45 6 10
45 7 1
45 10 5
45 11 2
45 13 6
45 15 7
45 17 8
45 19 3
45 20 9
45 24 6
45 26 2
45 28 5
45 29 2
45 32 4
45 33 6
45 35 4
45 36 8
45 37 2
45 39 4
45 40 6
45 42 5
45 44 10
46 0 8
46 1 3
46 2 1
46 3 8
46 5 1
46 8 7
46 9 10
46 12 4
46 14 4
46 16 8
46 17 7
46 18 9
46 19 10
46 20 5
46 24 7
46 25 5
46 26 10
46 27 1
46 28 9
46 29 4
46 30 1
46 31 10
46 33 6
46 34 6
46 38 3
46 42 4
46 43 4
46 44 8
47 0 9
47 1 5
47 2 4
47 5 6
47 6 2
47 7 10
47 10 8
47 15 1
47 16 10
47 17 9
47 18 6
47 20 4
47 23 6
47 28 1
47 31 7
47 32 4
47 33 3
47 34 4
47 35 5
47 36 1
47 37 8
47 38 7
47 39 1
47 40 10
47 42 3
48 2 2
48 4 4
48 5 5
48 6 6
48 7 7
48 8 6
48 9 5
48 11 3
48 15 3
48 18 5
48 20 5
48 22 4
48 24 2
48 25 7
48 26 4
48 28 9
48 31 4
48 33 6
48 34 4
48 38 1
48 39 10
48 41 6
48 42 4
48 44 7
48 46 7
49 1 5
49 4 4
49 5 6
49 9 9
49 11 7
49 12 6
49 13 9
49 15 7
49 16 6
49 21 5
49 22 9
49 23 6
49 24 6
49 26 1
49 31 5
49 32 2
49 33 3
49 35 9
49 39 1
49 40 8
49 45 1
49 46 6
49 47 1
49 48 5
50 4 1
50 5 7
50 6 10
50 7 6
50 8 10
50 9 7
50 11 9
50 14 8
50 15 4
50 16 9
50 19 5
50 27 6
50 28 7
50 30 3
50 33 5
50 37 2
50 39 1
50 40 2
50 41 10
50 48 4
50 49 5
51 0 2
51 1 9
51 2 10
51 3 10
51 5 6
51 6 1
51 7 10
51 12 7
51 13 7
51 14 10
51 15 10
51 16 7
51 21 5
51 23 5
51 24 4
51 26 8
51 29 4
51 30 2
51 33 7
51 34 5
51 39 3
51 41 3
51 45 7
51 47 1
51 49 9
51 50 2
52 2 9
52 3 2
52 4 9
52 5 3
52 8 4
52 10 1
52 11 4
52 12 7
52 15 10
52 16 7
52 17 4
52 18 1
52 19 4
52 22 7
52 23 10
52 29 6
52 30 2
52 31 1
52 34 7
52 35 1
52 37 3
52 38 2
52 41 3
52 43 9
52 44 2
52 45 7
52 49 8
52 51 8
53 0 7
53 3 7
53 5 8
53 6 3
53 8 9
53 12 8
53 13 3
53 15 4
53 16 10
53 20 2
53 21 9
53 24 2
53 25 10
53 26 4
53 27 3
53 28 4
53 29 6
53 30 1
53 32 10
53 35 8
53 36 1
53 40 3
53 43 8
53 44 3
53 46 4
53 47 6
53 48 3
53 49 2
53 50 8
53 51 2
54 2 2
54 3 2
54 4 6
54 7 10
54 8 3
54 14 10
54 15 2
54 19 6
54 20 8
54 25 2
54 27 9
54 29 9
54 30 7
54 31 10
54 32 6
54 33 8
54 35 2
54 37 10
54 38 4
54 39 2
54 41 6
54 44 3
54 46 2
54 49 2
54 50 2
54 51 2
54 53 2
55 0 4
55 1 5
55 2 6
55 3 6
55 6 3
55 7 2
55 8 6
55 9 5
55 10 5
55 13 2
55 14 10
55 15 7
55 17 5
55 20 7
55 23 5
55 24 5
55 26 5
55 28 10
55 31 3
55 33 6
55 34 1
55 35 1
55 36 9
55 38 10
55 39 8
55 40 3
55 41 5
55 42 9
55 44 5
55 45 8
55 49 7
55 52 2
55 53 3
56 0 3
56 1 10
56 3 9
56 4 5
56 5 6
56 6 10
56 8 2
56 12 2
56 13 1
56 14 1
56 15 2
56 16 4
56 17 4
56 19 3
56 20 6
56 22 7
56 24 10
56 27 6
56 28 7
56 31 3
56 33 7
56 36 1
56 37 1
56 38 10
56 39 2
56 42 1
56 43 8
56 44 4
56 45 4
56 47 8
56 54 1
57 0 1
57 1 3
57 2 6
57 3 7
57 4 2
57 5 10
57 9 1
57 10 3
57 11 2
57 18 1
57 19 4
57 20 8
57 23 5
57 24 5
57 26 3
57 28 6
57 30 6
57 31 9
57 32 4
57 33 6
57 35 10
57 36 6
57 38 3
57 42 7
57 43 4
57 44 8
57 45 7
57 46 1
57 47 6
57 51 1
57 53 6
58 0 4
58 3 8
58 6 2
58 7 4
58 9 6
58 10 7
58 12 6
58 19 9
58 20 10
58 21 4
58 22 7
58 28 1
58 29 2
58 31 10
58 32 1
58 33 1
58 34 3
58 36 10
58 37 10
58 41 5
58 42 4
58 44 1
58 46 5
58 47 6
58 48 2
58 50 5
58 51 7
58 53 8
58 54 4
59 0 9
59 1 2
59 4 9
59 5 4
59 6 5
59 8 10
59 9 5
59 13 9
59 14 4
59 15 7
59 18 2
59 20 7
59 23 8
59 24 9
59 25 5
59 27 6
59 28 7
59 37 6
59 40 3
59 44 7
59 48 7
59 49 8
59 52 5
59 53 8
59 54 6
59 57 10
59 58 2
